; TODO try replacing this with int
(declare-datatype nat ((zero) (s (s_0 nat))))
(declare-datatype tree (par (a) ((Leaf) (Node (Node_0 (tree a)) (Node_1 a) (Node_2 (tree a))))))
(declare-fun plus (nat nat) nat)
(assert (forall ((x nat)) (= (plus zero x) x)))
(assert (forall ((x nat) (y nat)) (= (plus (s x) y) (s (plus x y)))))
(declare-fun size (par (a) ((tree a)) nat))
(assert (par (a) (= (size a (Leaf a)) zero)))
(assert (par (a) (forall ((l (tree a)) (x a) (r (tree a))) (= (size a (Node a l x r)) (s (plus (size a l) (size a r)))))))
(declare-fun size1 (par (a) ((tree a)) nat))
(assert (par (a) (= (size1 a (Leaf a)) (s zero))))
(assert (par (a) (forall ((l (tree a)) (x a) (r (tree a))) (= (size1 a (Node a l x r)) (plus (size1 a l) (size1 a r))))))

; |t|_1 = |t| + 1
(assert-not (par (a) (forall ((t (tree a))) (= (size1 a t) (s (size a t))))))
